scheduleLength  = 7;
numberEmployees = 16;
numberShifts    = 3;
minDaysOff      = 2;
maxDaysOff      = 4;
minDaysWork     = 3;
maxDaysWork     = 7;
shiftNames      = ["D", "A", "N"];
minDaysShift    = [2, 2, 2];
maxDaysShift    = [7, 6, 5];

requirements = [| 5, 5, 5, 5, 5, 2, 0,
                | 5, 5, 5, 5, 5, 2, 0,
                | 3, 3, 3, 3, 2, 0, 3 |];

numberForbiddenShifts2 = 3;
forbiddenShifts2 = [| 3, 1,
                    | 3, 2,
                    | 2, 1 |];

numberForbiddenShifts3 = 0;
forbiddenShifts3 = array2d({},1..2,[]);

